1000
50 50
1 35 406
2 35 162
3 35 119
4 35 620
5 35 472
6 35 179
7 35 12
8 35 901
9 35 793
10 35 11
11 35 390
12 35 911
13 35 159
14 35 694
15 35 846
16 35 875
17 35 10
18 35 4
19 35 941
20 35 881
21 35 817
22 35 458
23 35 841
24 35 42
25 35 460
26 35 917
27 35 21
28 35 72
29 35 775
30 35 771
31 35 488
32 35 77
33 35 908
34 35 203
35 35 373
36 35 137
37 35 852
38 35 611
39 35 832
40 34 328
41 34 118
42 34 686
43 34 13
44 34 521
45 34 925
46 34 630
47 34 413
48 34 885
49 34 989
50 34 569
51 34 793
52 34 224
53 34 159
54 34 871
55 34 237
56 34 611
57 34 699
58 34 658
59 34 970
60 34 971
61 34 98
62 34 523
63 34 644
64 34 894
65 34 920
66 34 857
67 34 428
68 34 118
69 34 946
70 34 311
71 34 983
72 34 508
73 34 656
74 34 153
75 34 923
76 34 452
77 34 430
78 34 250
79 34 610
80 34 21
81 34 145
82 34 395
83 34 208
84 34 883
85 34 85
86 34 376
87 34 839
88 34 452
89 34 945
90 34 862
91 34 563
92 34 117
93 33 113
94 33 196
95 33 598
96 33 235
97 33 849
98 33 637
99 33 717
100 33 523
101 33 224
102 33 92
103 33 98
104 33 481
105 33 891
106 33 765
107 33 939
108 33 805
109 33 485
110 33 608
111 33 672
112 33 249
113 33 35
114 33 782
115 33 479
116 33 224
117 33 452
118 33 976
119 33 503
120 33 749
121 33 904
122 33 989
123 33 179
124 33 822
125 33 333
126 32 791
127 32 928
128 32 458
129 32 991
130 32 391
131 32 236
132 32 195
133 32 707
134 32 904
135 32 640
136 32 978
137 32 567
138 32 337
139 32 961
140 32 970
141 32 836
142 32 548
143 32 46
144 32 783
145 32 484
146 32 559
147 32 570
148 32 162
149 32 540
150 32 145
151 32 298
152 32 536
153 32 502
154 32 233
155 32 767
156 32 672
157 32 194
158 32 712
159 32 711
160 32 696
161 32 724
162 32 859
163 32 376
164 31 258
165 31 821
166 31 916
167 31 607
168 31 114
169 31 848
170 31 348
171 31 478
172 31 544
173 31 803
174 31 485
175 31 92
176 31 2
177 31 603
178 31 152
179 31 572
180 31 122
181 31 741
182 31 791
183 31 897
184 31 364
185 31 938
186 31 425
187 31 345
188 31 414
189 31 254
190 31 163
191 31 914
192 31 351
193 31 172
194 31 396
195 31 12
196 31 288
197 31 160
198 31 588
199 30 817
200 30 708
201 30 433
202 30 919
203 30 562
204 30 97
205 30 843
206 30 408
207 30 681
208 30 272
209 30 567
210 30 356
211 30 984
212 30 102
213 30 296
214 30 572
215 30 942
216 30 541
217 30 264
218 30 225
219 30 281
220 30 721
221 30 435
222 30 690
223 30 505
224 30 242
225 30 903
226 30 365
227 30 922
228 30 487
229 30 889
230 30 150
231 30 168
232 30 546
233 30 221
234 30 445
235 30 777
236 30 899
237 30 228
238 30 6
239 30 695
240 30 900
241 30 923
242 30 356
243 30 298
244 29 102
245 29 914
246 29 452
247 29 528
248 29 691
249 29 256
250 29 311
251 29 496
252 29 80
253 29 520
254 29 394
255 29 913
256 29 895
257 29 291
258 29 227
259 29 388
260 29 109
261 29 433
262 29 126
263 29 880
264 29 725
265 29 404
266 29 10
267 29 529
268 29 89
269 29 756
270 29 760
271 29 336
272 29 421
273 29 727
274 29 294
275 29 699
276 29 325
277 29 661
278 29 652
279 29 52
280 28 686
281 28 431
282 28 769
283 28 977
284 28 678
285 28 222
286 28 595
287 28 87
288 28 606
289 28 969
290 28 498
291 28 837
292 28 243
293 28 266
294 28 922
295 28 775
296 28 232
297 28 381
298 28 913
299 28 735
300 28 941
301 28 263
302 28 115
303 28 280
304 28 980
305 28 801
306 28 849
307 28 368
308 28 661
309 28 249
310 28 905
311 28 871
312 28 184
313 28 102
314 28 582
315 28 158
316 28 839
317 28 546
318 28 882
319 28 596
320 28 994
321 27 908
322 27 812
323 27 698
324 27 858
325 27 331
326 27 694
327 27 556
328 27 580
329 27 939
330 27 494
331 27 267
332 27 746
333 27 437
334 27 714
335 27 416
336 27 267
337 27 426
338 27 692
339 27 687
340 27 127
341 27 434
342 27 446
343 27 406
344 27 666
345 27 657
346 27 565
347 27 112
348 27 233
349 27 721
350 27 840
351 27 126
352 27 419
353 27 804
354 27 334
355 27 823
356 27 961
357 27 632
358 27 545
359 27 658
360 27 169
361 26 912
362 26 366
363 26 447
364 26 8
365 26 536
366 26 738
367 26 928
368 26 605
369 26 51
370 26 973
371 26 347
372 26 644
373 26 791
374 26 915
375 26 237
376 26 457
377 26 919
378 26 471
379 26 84
380 26 822
381 26 616
382 26 856
383 26 265
384 26 246
385 26 899
386 26 562
387 26 576
388 26 441
389 26 367
390 26 669
391 26 720
392 26 49
393 26 597
394 26 740
395 26 271
396 26 830
397 26 418
398 26 710
399 26 826
400 26 201
401 26 877
402 26 106
403 26 76
404 26 737
405 26 809
406 26 807
407 26 713
408 26 330
409 25 395
410 25 95
411 25 104
412 25 805
413 25 969
414 25 764
415 25 379
416 25 204
417 25 562
418 25 770
419 25 813
420 25 286
421 25 664
422 25 36
423 25 542
424 25 202
425 25 870
426 25 935
427 25 337
428 25 289
429 25 899
430 25 941
431 25 26
432 25 522
433 25 774
434 25 785
435 25 876
436 25 983
437 25 283
438 25 885
439 25 454
440 25 291
441 25 227
442 24 475
443 24 104
444 24 556
445 24 434
446 24 663
447 24 211
448 24 397
449 24 667
450 24 690
451 24 422
452 24 3
453 24 838
454 24 163
455 24 730
456 24 513
457 24 575
458 24 214
459 24 968
460 24 882
461 24 124
462 24 263
463 24 282
464 24 192
465 24 203
466 24 407
467 24 249
468 24 926
469 24 796
470 24 177
471 24 61
472 24 892
473 24 168
474 23 277
475 23 499
476 23 303
477 23 822
478 23 98
479 23 569
480 23 792
481 23 507
482 23 451
483 23 488
484 23 569
485 23 658
486 23 170
487 23 546
488 23 279
489 23 871
490 23 284
491 23 774
492 23 211
493 23 16
494 23 385
495 23 58
496 23 249
497 23 508
498 23 798
499 23 758
500 23 790
501 23 966
502 23 954
503 23 587
504 22 218
505 22 215
506 22 445
507 22 850
508 22 784
509 22 613
510 22 342
511 22 745
512 22 488
513 22 554
514 22 523
515 22 596
516 22 317
517 22 627
518 22 263
519 22 994
520 22 988
521 22 715
522 22 108
523 22 640
524 22 926
525 22 582
526 22 171
527 22 476
528 22 455
529 22 657
530 22 970
531 22 282
532 22 232
533 22 288
534 22 411
535 22 7
536 22 713
537 22 138
538 22 460
539 22 965
540 22 645
541 22 621
542 21 977
543 21 434
544 21 517
545 21 502
546 21 717
547 21 351
548 21 264
549 21 891
550 21 880
551 21 333
552 21 748
553 21 319
554 21 547
555 21 842
556 21 20
557 21 840
558 21 738
559 21 516
560 21 695
561 21 85
562 21 505
563 21 719
564 21 259
565 21 567
566 21 28
567 20 314
568 20 491
569 20 667
570 20 532
571 20 151
572 20 119
573 20 432
574 20 190
575 20 298
576 20 906
577 20 650
578 20 768
579 20 480
580 20 910
581 20 465
582 20 108
583 20 212
584 20 795
585 20 971
586 20 725
587 20 936
588 20 880
589 20 360
590 20 511
591 20 446
592 20 403
593 20 374
594 20 265
595 20 302
596 20 694
597 20 712
598 20 640
599 20 615
600 20 248
601 20 767
602 20 677
603 20 656
604 20 832
605 19 974
606 19 178
607 19 61
608 19 525
609 19 694
610 19 250
611 19 321
612 19 870
613 19 989
614 19 712
615 19 166
616 19 83
617 19 340
618 19 868
619 19 460
620 19 170
621 19 503
622 19 73
623 19 924
624 19 390
625 19 381
626 19 997
627 19 299
628 19 506
629 19 738
630 19 690
631 19 386
632 19 785
633 19 631
634 19 397
635 19 730
636 19 113
637 19 282
638 19 43
639 18 27
640 18 167
641 18 399
642 18 299
643 18 461
644 18 669
645 18 973
646 18 847
647 18 744
648 18 800
649 18 576
650 18 324
651 18 473
652 18 222
653 18 433
654 18 888
655 18 50
656 18 592
657 18 916
658 18 911
659 18 968
660 18 614
661 18 432
662 18 30
663 18 265
664 18 891
665 18 488
666 18 504
667 18 261
668 18 529
669 18 993
670 18 902
671 18 799
672 18 394
673 18 412
674 18 189
675 18 623
676 18 595
677 18 316
678 18 718
679 18 925
680 18 312
681 18 476
682 17 171
683 17 244
684 17 705
685 17 939
686 17 154
687 17 247
688 17 199
689 17 739
690 17 539
691 17 555
692 17 434
693 17 367
694 17 507
695 17 917
696 17 540
697 17 863
698 17 100
699 17 377
700 17 806
701 17 794
702 17 525
703 17 824
704 17 129
705 17 111
706 17 260
707 17 430
708 17 149
709 17 112
710 17 574
711 17 517
712 17 925
713 17 642
714 17 45
715 17 53
716 16 144
717 16 717
718 16 465
719 16 114
720 16 506
721 16 477
722 16 428
723 16 984
724 16 139
725 16 224
726 16 879
727 16 900
728 16 265
729 16 27
730 16 555
731 16 62
732 16 869
733 16 256
734 16 344
735 16 555
736 16 102
737 16 137
738 16 326
739 16 465
740 16 395
741 16 727
742 16 439
743 16 69
744 16 842
745 16 9
746 16 815
747 16 812
748 16 953
749 16 928
750 16 778
751 16 777
752 16 916
753 16 803
754 16 178
755 16 167
756 16 222
757 16 185
758 15 677
759 15 129
760 15 134
761 15 912
762 15 606
763 15 981
764 15 20
765 15 868
766 15 703
767 15 864
768 15 259
769 15 301
770 15 294
771 15 157
772 15 97
773 15 625
774 15 456
775 15 739
776 15 519
777 15 114
778 15 189
779 15 727
780 15 610
781 15 115
782 15 542
783 15 644
784 15 833
785 15 932
786 15 595
787 15 38
788 15 942
789 15 321
790 15 687
791 15 606
792 15 934
793 15 237
794 15 6
795 15 972
796 15 233
797 15 779
798 15 207
799 15 776
800 15 871
801 15 404
802 15 641
803 15 788
804 14 658
805 14 233
806 14 8
807 14 304
808 14 377
809 14 963
810 14 178
811 14 341
812 14 688
813 14 808
814 14 265
815 14 329
816 14 614
817 14 5
818 14 614
819 14 661
820 14 316
821 14 151
822 14 484
823 14 121
824 14 482
825 14 205
826 14 602
827 14 639
828 14 773
829 14 377
830 14 128
831 14 552
832 14 153
833 14 191
834 14 249
835 14 201
836 14 794
837 14 740
838 14 563
839 14 5
840 14 72
841 14 280
842 14 853
843 13 402
844 13 540
845 13 793
846 13 417
847 13 128
848 13 858
849 13 623
850 13 597
851 13 912
852 13 453
853 13 351
854 13 893
855 13 693
856 13 953
857 13 1000
858 13 234
859 13 500
860 13 895
861 13 150
862 13 370
863 13 404
864 13 111
865 13 801
866 13 517
867 13 333
868 13 888
869 13 932
870 13 992
871 13 978
872 13 774
873 13 291
874 13 521
875 13 413
876 13 376
877 13 118
878 13 43
879 13 271
880 13 123
881 13 635
882 13 851
883 13 310
884 13 650
885 13 51
886 13 823
887 13 365
888 12 981
889 12 39
890 12 35
891 12 381
892 12 6
893 12 559
894 12 703
895 12 572
896 12 759
897 12 836
898 12 433
899 12 652
900 12 644
901 12 242
902 12 174
903 12 385
904 12 23
905 12 714
906 12 619
907 12 838
908 12 572
909 12 831
910 12 802
911 12 492
912 12 761
913 12 868
914 12 813
915 12 125
916 12 798
917 12 213
918 12 59
919 12 249
920 12 752
921 12 764
922 12 270
923 12 249
924 12 452
925 12 40
926 11 340
927 11 660
928 11 507
929 11 899
930 11 152
931 11 416
932 11 25
933 11 887
934 11 89
935 11 229
936 11 159
937 11 927
938 11 263
939 11 295
940 11 902
941 11 324
942 11 447
943 11 183
944 11 273
945 11 971
946 11 426
947 11 799
948 11 890
949 11 211
950 11 666
951 11 112
952 11 785
953 11 434
954 11 140
955 11 901
956 11 893
957 11 204
958 11 530
959 11 722
960 11 174
961 11 267
962 11 22
963 11 739
964 11 552
965 11 281
966 11 561
967 10 528
968 10 737
969 10 634
970 10 23
971 10 579
972 10 284
973 10 210
974 10 314
975 10 908
976 10 624
977 10 696
978 10 395
979 10 540
980 10 978
981 10 996
982 10 347
983 10 930
984 10 360
985 10 955
986 10 242
987 10 10
988 10 878
989 10 274
990 10 448
991 10 830
992 10 758
993 10 166
994 10 871
995 10 14
996 10 873
997 10 502
998 10 976
999 10 454
1000 10 935
